echo
start water_dft
title "Water DFT single point -- valid preflight fixture"
memory 2000 mb
geometry
  O     0.000   0.000   0.000
  H     0.757   0.587   0.000
  H    -0.757   0.587   0.000
end
basis
  O library 6-31g
  H library 6-31g
end
dft
  xc b3lyp
  mult 1
end
task dft energy
