# Test fixture: Invalid DFT grid value

title "Invalid grid test"

geometry units angstroms
  O  0.0  0.0  0.0
  H  0.0  0.8  0.6
end

basis spherical
  * library 6-31g
end

dft
  xc b3lyp
  grid megafine
end

task dft energy
